&GLOBAL
   PRINT_LEVEL MEDIUM
   PROJECT_NAME "R2SCAN"
   RUN_TYPE CELL_OPT
 &END GLOBAL
 &MOTION
   &CELL_OPT
     MAX_ITER 200 #default
     OPTIMIZER BFGS
     MAX_FORCE  4.5000000000000000E-004 #default
     TYPE DIRECT_CELL_OPT
     &PRINT
       &CELL ON
       &END CELL
     &END PRINT
   &END CELL_OPT
 &END MOTION
 &FORCE_EVAL
   METHOD QS
   STRESS_TENSOR ANALYTICAL
   &DFT
     BASIS_SET_FILE_NAME BASIS_MOLOPT
     BASIS_SET_FILE_NAME BASIS_MOLOPT_UCL
     POTENTIAL_FILE_NAME GTH_POTENTIALS
     WFN_RESTART_FILE_NAME R2SCAN-RESTART.wfn
     &SCF
       MAX_SCF 50 #default
       EPS_SCF  1.0E-05 #default
       SCF_GUESS RESTART
       &MIXING T
         METHOD BROYDEN_MIXING
         NBUFFER 15
       &END MIXING
     &END SCF
     &QS
       EPS_DEFAULT  1.0000000000000000E-010 #default
     &END QS
     &MGRID
       NGRIDS 4
       CUTOFF  6.0000000000000000E+002
       REL_CUTOFF  8.0000000000000000E+001
     &END MGRID
     &XC
       DENSITY_CUTOFF  1.0000000000000000E-010
       GRADIENT_CUTOFF  1.0000000000000000E-010
       TAU_CUTOFF  1.0000000000000000E-010
       &XC_FUNCTIONAL NO_SHORTCUT
         &MGGA_X_R2SCAN T
         &END MGGA_X_R2SCAN
         &MGGA_C_R2SCAN T
         &END MGGA_C_R2SCAN
       &END XC_FUNCTIONAL
       &VDW_POTENTIAL
         POTENTIAL_TYPE PAIR_POTENTIAL
         &PAIR_POTENTIAL
           TYPE DFTD3(BJ)
           PARAMETER_FILE_NAME dftd3.dat
           REFERENCE_FUNCTIONAL "SCAN"
         &END PAIR_POTENTIAL
       &END VDW_POTENTIAL
     &END XC
     &POISSON
       POISSON_SOLVER PERIODIC
       PERIODIC XYZ
     &END POISSON
   &END DFT
   &SUBSYS
   &CELL
      A 14.773305048352187 0.0 0.0
      B -7.386563614203676 12.794204393689997 0.0
      C -7.178550448585078e-05 -8.52938625049555 12.062453964139772
      PERIODIC XYZ
      MULTIPLE_UNIT_CELL 1 1 1
   &END CELL
   &COORD
      Zr       5.46121342       5.37642069       1.44347196
      Zr       1.92541357      -1.11163016      10.61897480
      Zr       5.46137889      -1.11148286      10.61883220
      Zr       1.92529641       5.37635426       1.44360330
      Zr       3.69329885      -4.17400773      10.61874616
      Zr       3.69342974       8.43888169       1.44369658
      H        6.47546518      -3.73859185      10.92664239
      H        0.91109572      -3.73857170      10.92657771
      H        3.69329928       1.08029836      10.92660250
      H        3.69338195       6.39712559       3.40740609
      H       -0.45959028       2.54469245      10.32369248
      H        7.81324941       1.70101412       1.76565613
      H       -1.71947326       4.72689027      10.32365947
      H        9.07314337      -0.48112290       1.76571112
      H       -0.42659115      -2.03297267       7.04637856
      H        7.84627699       6.31685236       4.98906101
      H       13.08680238      -2.76032246       4.98901899
      H       -5.66713020       7.04422222       7.04641737
      H       13.08678340      -0.48110467       1.76571408
      H       -5.66719592       4.72689440      10.32372043
      H       -0.42662457       1.70103575       1.76568805
      H        7.84623938       2.54477040      10.32373289
      H       -1.71945853       7.04420868       7.04638976
      H        9.07306673      -2.76027559       4.98902018
      H       -0.45959499       6.31683265       4.98903533
      H        7.81315123      -2.03296613       7.04636633
      H       -2.43337627       5.17713083       1.76569694
      H        9.82003348      -0.87419783      10.32366260
      H        9.82016238       5.17717759       1.76568984
      H       -2.43345053      -0.87417405      10.32362923
      H        5.83934346       1.38593732       7.04646340
      H        1.54721635       2.84076751       4.98899114
      H        5.83934768       2.84076156       4.98905284
      H        1.54730275       1.38592820       7.04638904
      C        5.90457960       2.48233790       0.02966811
      C        1.48211087      -3.40926133       8.36172225
      C        1.40903181      10.26962867       0.02997493
      C        5.97777016       7.71632091       3.64094492
      C        8.18916662       6.43944408       0.02972443
      C        3.69319778       3.75916695       3.64096344
      C       -0.80247856       6.43922353       0.02993362
      C        3.69348732       0.42114112       8.36175599
      C        5.90464316      -3.40915211       8.36162679
      C        5.97789051      10.26959199       0.02989260
      C        1.40886182       7.71622759       3.64107956
      C        1.48200828       2.48236548       0.02985052
      C        0.67300660      11.56973570       0.02067093
      C        6.66281463       1.19503276       0.02088169
      C       -0.27878180       3.30121898      11.08613443
      C        7.62748775       0.94163839       1.00727534
      C       -0.97390925       4.50509236      11.08610122
      C        8.32255288      -0.26225949       1.00738928
      C        0.72379420      -3.84665361       7.15093562
      C        6.71384335       8.14089579       4.86986809
      C       -0.24088161      -3.00109036       6.58327803
      C        7.66551929       7.28782669       5.44812142
      C       13.83736657      -3.40233590       5.44818623
      C       -6.41269157       7.68910172       6.58317666
      C        6.71383511      11.56978395       0.02078398
      C        0.72383153       1.19497691       0.02084251
      C       13.83733458      -0.26221996       1.00734794
      C       -6.41274979       4.50510724      11.08608724
      C       -0.24090354       0.94163481       1.00732980
      C        7.66544370       3.30126101      11.08609952
      C        6.66279864      -3.84670161       7.15095109
      C        0.67297582       8.14089949       4.86987199
      C       -0.97380871       7.68914174       6.58313591
      C        8.32244996      -3.40236926       5.44815502
      C       -0.27880782       7.28784265       5.44811035
      C        7.62742174      -3.00104887       6.58318081
      C       -2.29634483       6.42655003       0.02068227
      C        9.68311599       6.42643866       0.02085508
      C       -2.99819186       5.71774094       1.00733297
      C       10.38488887      -1.40896100      11.08614417
      C       10.38495114       5.71774480       1.00730616
      C       -2.99824279      -1.40897807      11.08613360
      C        3.69321358       1.29655283       7.15098303
      C        3.69343075       2.90947963       4.86980570
      C        4.90807183       1.70921033       6.58318135
      C        2.47857345       2.51174286       5.44812511
      C        4.90805688       2.51180571       5.44812223
      C        2.47858572       1.70919064       6.58321632
      O        6.18141561       3.31830287       0.95697499
      O        1.20529533      -2.25628573       8.84070389
      O        1.13442809       0.90562592      11.16323616
      O        6.25228655       6.56200930       3.16385015
      O        7.60381607      -1.43495601      11.16306983
      O        2.55646109       4.09849111       3.16397459
      O       -0.21711106       5.78157049       0.95710916
      O        4.83026217       0.08452246       8.84057285
      O        5.04470845      -4.22534340       8.84052848
      O        5.11558637      10.09153869       0.95714018
      O        2.27109748       8.53106690       3.16411390
      O        2.34180106      -5.86769280      11.16307796
      O        6.25244116       0.90578425      11.16308103
      O        1.13431911       6.56198444       3.16402277
      O        1.20511351       3.31831414       0.95710126
      O        6.18152816      -2.25623491       8.84051325
      O        7.60360570       5.78174884       0.95700854
      O        2.55663912       0.08438104       8.84077511
      O       -0.21707462      -1.43512337      11.16323152
      O        4.83003548       4.09855968       3.16386628
      O        5.11555615       8.53112625       3.16404110
      O        5.04468137      -5.86763264      11.16300597
      O        2.34194511      -4.22546879       8.84053594
      O        2.27122064      10.09162710       0.95718092
      O        3.69335142       6.39717232       2.43827775
      O        3.69326095       0.16660573      11.24970949
      O        1.70242919      -3.28175235      11.24963138
      O        5.68415691      -3.28174677      11.24966252
      O        3.69330833      -2.13241996      10.26779474
      O        3.69323335       4.70510470       0.59808596
      O        2.22811445       7.24317360       0.59840068
      O        5.15858837       7.24326982       0.59825734
   &END COORD
     &KIND "H"
       BASIS_SET "DZV2P-MOLOPT-GTH-q1"
       POTENTIAL "GTH-PBE-q1"
    &END KIND
     &KIND "C"
       BASIS_SET "DZV2P-MOLOPT-GTH-q4"
       POTENTIAL "GTH-PBE-q4"
    &END KIND
     &KIND "O"
       BASIS_SET "DZV2P-MOLOPT-GTH-q6"
       POTENTIAL "GTH-PBE-q6"
    &END KIND
     &KIND "Zr"
       BASIS_SET "DZV2P-MOLOPT-SR-GTH-q12"
       POTENTIAL "GTH-PBE-q12"
    &END KIND
     &TOPOLOGY
       MULTIPLE_UNIT_CELL 1 1 1
     &END TOPOLOGY
   &END SUBSYS
 &END FORCE_EVAL
