# Generated by Phonopy
&FORCE_EVAL
   METHOD QS
   STRESS_TENSOR ANALYTICAL
   &PRINT
      &FORCES
         FILENAME forces
      &END FORCES
   &END PRINT
   &SUBSYS
      &KIND Zn
         BASIS_SET TZV2P-MOLOPT-SR-GTH-q12
         POTENTIAL GTH-PBE-q12
         &POTENTIAL
            2 0 10
            5.1000000000000001E-001 0
            3
            4.0031644000000000E-001 3  1.1530041330000000E+001 -8.7918981499999997E+000  3.1450864400000000E+000
            1.6465775180000001E+001 -8.1205782699999993E+000
            6.4455091800000002E+000
            5.4318233000000005E-001 2  2.5971951199999999E+000 -5.9426274999999995E-001
            7.0314116999999998E-001
            2.5095885000000001E-001 1 -1.4466957949999999E+001
         &END POTENTIAL
      &END KIND
      &KIND N
         BASIS_SET TZV2P-MOLOPT-GTH-q5
         POTENTIAL GTH-PBE-q5
         &POTENTIAL
            2 3
            2.8379051000000000E-001 2 -1.2415225590000000E+001  1.8680959200000000E+000
            2
            2.5540499999999999E-001 1  1.3630262569999999E+001
            2.4549452999999999E-001 0
         &END POTENTIAL
      &END KIND
      &KIND C
         BASIS_SET TZV2P-MOLOPT-GTH-q4
         POTENTIAL GTH-PBE-q4
         &POTENTIAL
            2 2
            3.3847124000000001E-001 2 -8.8036739799999992E+000  1.3392108500000000E+000
            2
            3.0257574999999998E-001 1  9.6224866500000008E+000
            2.9150693999999999E-001 0
         &END POTENTIAL
      &END KIND
      &KIND H
         BASIS_SET TZV2P-MOLOPT-GTH-q1
         POTENTIAL GTH-PBE-q1
         &POTENTIAL
            1
            2.0000000000000001E-001 2 -4.1789004399999996E+000  7.2446330999999997E-001
            0
         &END POTENTIAL
      &END KIND
      &COORD
         Zn 1.6472042795229707e-15 4.04964282628956 8.417121522253234
         Zn 8.41712152225323 4.36747869596368 3.238321951694328e-15
         Zn 4.36747869596368 2.627457359970933e-15 8.41712152225323
         Zn 4.04964282628956 8.417121522253233 1.9518191910847535e-15
         Zn 8.417121522253233 1.8226666312074738e-15 4.049642826289559
         Zn 9.344882115073486e-16 8.417121522253234 4.367478695963677
         C -0.1053381520594887 6.262492580306705 10.402768581248598
         C 0.10533815205949212 6.262492580306703 6.431474463257868
         C 8.52245967431272 2.154628941946535 1.9856470589953685
         C 8.311783370193746 2.1546289419465343 -1.985647058995366
         C 2.1546289419465356 1.9856470589953685 8.522459674312723
         C 2.1546289419465348 -1.9856470589953663 8.311783370193746
         C 6.262492580306703 10.4027685812486 -0.10533815205948767
         C 6.262492580306702 6.43147446325787 0.10533815205949316
         C 6.43147446325787 0.10533815205949375 6.262492580306701
         C 10.402768581248598 -0.10533815205948775 6.262492580306703
         C -1.9856470589953636 8.311783370193744 2.154628941946536
         C 1.9856470589953692 8.52245967431272 2.154628941946535
         N 0.5844712557697921 5.222329464570554 9.892809176439698
         N -0.5844712557697918 5.222329464570556 6.941433868066773
         N 7.832650266483447 3.194792057682683 1.4756876541864652
         N 9.001592778023024 3.194792057682683 -1.4756876541864619
         N 3.194792057682683 1.4756876541864652 7.8326502664834425
         N 3.194792057682683 -1.4756876541864614 9.001592778023024
         N 5.2223294645705565 9.892809176439695 0.5844712557697936
         N 5.222329464570556 6.941433868066773 -0.5844712557697914
         N 6.941433868066773 -0.5844712557697912 5.222329464570555
         N 9.892809176439696 0.5844712557697922 5.222329464570554
         N -1.475687654186462 9.001592778023024 3.194792057682683
         N 1.4756876541864634 7.832650266483445 3.194792057682685
         N 6.911275447508024 5.486172992210403 -0.6030100785685919
         N 9.922967596998443 5.486172992210406 0.6030100785685961
         N -1.5058460747452083 2.9309485300428326 9.020131600821825
         N 1.505846074745216 2.9309485300428326 7.8141114436846415
         N 0.6030100785685947 9.922967596998445 5.486172992210405
         N -0.6030100785685918 6.911275447508024 5.486172992210403
         N 7.814111443684642 1.5058460747452138 2.930948530042835
         N 9.020131600821825 -1.5058460747452083 2.9309485300428326
         N 2.930948530042833 7.814111443684641 1.5058460747452151
         N 2.9309485300428326 9.020131600821827 -1.5058460747452083
         N 5.486172992210406 0.6030100785685965 9.922967596998443
         N 5.486172992210403 -0.6030100785685918 6.911275447508023
         C 1.8043611544607554 5.21997269980804 10.538913850884217
         C -1.8043611544607532 5.219972699808039 6.295329193622251
         C 6.6127603677924816 3.1971488224451994 2.1217923286309865
         C 10.221482676713991 3.197148822445197 -2.121792328630984
         C 3.1971488224451976 2.121792328630988 6.612760367792479
         C 3.197148822445197 -2.1217923286309843 10.22148267671399
         C 5.219972699808041 10.538913850884217 1.8043611544607585
         C 5.2199726998080385 6.295329193622251 -1.8043611544607532
         C 6.295329193622252 -1.804361154460753 5.2199726998080385
         C 10.538913850884217 1.8043611544607558 5.219972699808039
         C -2.1217923286309843 10.22148267671399 3.197148822445198
         C 2.1217923286309865 6.6127603677924816 3.197148822445199
         C 6.255711841111138 5.402306651480117 -1.816192782557743
         C 10.578531203395329 5.402306651480117 1.8161927825577473
         C -2.1614096811420964 3.0148148707731206 10.233314304810976
         C 2.161409681142098 3.014814870773123 6.600928739695489
         C 1.8161927825577473 10.578531203395329 5.402306651480116
         C -1.8161927825577426 6.255711841111137 5.402306651480118
         C 6.600928739695491 2.161409681142101 3.0148148707731206
         C 10.23331430481098 -2.161409681142097 3.014814870773121
         C 3.0148148707731206 6.600928739695491 2.1614096811421004
         C 3.0148148707731193 10.233314304810978 -2.161409681142095
         C 5.402306651480117 1.816192782557747 10.57853120339533
         C 5.402306651480117 -1.816192782557743 6.255711841111138
         H 2.5602264838423476 4.4870631454951715 10.3079186661488
         H -2.560226483842345 4.4870631454951715 6.526324378357672
         H 5.85689503841089 3.930058376758067 1.890797143895566
         H 10.97734800609558 3.930058376758065 -1.8907971438955642
         H 3.930058376758065 1.8907971438955682 5.856895038410888
         H 3.9300583767580637 -1.890797143895563 10.97734800609558
         H 4.487063145495174 10.307918666148797 2.560226483842349
         H 4.4870631454951715 6.526324378357672 -2.5602264838423445
         H 6.526324378357672 -2.560226483842345 4.4870631454951715
         H 10.3079186661488 2.5602264838423485 4.487063145495171
         H -1.8907971438955644 10.97734800609558 3.930058376758064
         H 1.8907971438955662 5.85689503841089 3.9300583767580677
         H 6.584806738865545 4.72095952978748 -2.583657997264872
         H 10.249436305640922 4.720959529787479 2.5836579972648774
         H -1.8323147833876856 3.6961619924657585 11.000779519518105
         H 1.8323147833876912 3.69616199246576 5.8334635249883595
         H 2.5836579972648757 10.249436305640922 4.720959529787481
         H -2.583657997264872 6.584806738865545 4.72095952978748
         H 5.833463524988361 1.8323147833876932 3.6961619924657585
         H 11.000779519518106 -1.8323147833876872 3.69616199246576
         H 3.696161992465758 5.833463524988362 1.8323147833876925
         H 3.6961619924657576 11.000779519518106 -1.8323147833876887
         H 4.72095952978748 2.583657997264876 10.24943630564092
         H 4.72095952978748 -2.583657997264872 6.584806738865545
         C -1.4483542934101652 6.688994802891637 9.92245345123558
         C 1.4483542934101683 6.688994802891637 6.911789593270888
         C 9.865475815663398 1.7281267193616017 1.505331928982349
         C 6.9687672288430695 1.7281267193616012 -1.5053319289823455
         C 1.728126719361601 1.5053319289823492 9.865475815663398
         C 1.7281267193616014 -1.5053319289823452 6.9687672288430695
         C 6.688994802891637 9.92245345123558 -1.4483542934101648
         C 6.688994802891637 6.911789593270889 1.4483542934101683
         C 6.911789593270889 1.4483542934101687 6.688994802891637
         C 9.92245345123558 -1.4483542934101652 6.688994802891636
         C -1.5053319289823457 6.96876722884307 1.7281267193616014
         C 1.5053319289823486 9.8654758156634 1.7281267193616012
         H 6.466980394681944 -1.1141652776204107 2.2533936446858998
         H 1.950141127571292 7.302956244632825 6.163727877567341
         H 10.367262649824525 1.1141652776204116 2.2533936446858984
         H -1.950141127571291 9.531286799873644 6.1637278775673385
         H 1.1141652776204125 2.2533936446858975 10.367262649824525
         H 9.531286799873644 6.163727877567339 -1.9501411275712905
         H -1.1141652776204085 2.253393644685898 6.466980394681942
         H 7.302956244632826 6.16372787756734 1.9501411275712948
         H 6.163727877567343 1.950141127571293 7.302956244632824
         H 2.2533936446858975 6.466980394681943 -1.1141652776204085
         H 6.163727877567339 -1.9501411275712908 9.531286799873644
         H 2.2533936446858975 10.367262649824525 1.1141652776204125
         H -2.0756361047822414 5.826496238101224 9.692316802730423
         H 2.0756361047822427 5.826496238101225 7.141926241776045
         H 10.492757627035475 2.590625284152014 1.2751952804771909
         H 6.341485417470994 2.590625284152015 -1.27519528047719
         H 2.590625284152013 1.275195280477192 10.492757627035473
         H 2.590625284152013 -1.2751952804771878 6.3414854174709925
         H 5.826496238101225 9.692316802730423 -2.075636104782242
         H 5.826496238101225 7.141926241776046 2.075636104782245
         H 7.141926241776049 2.075636104782244 5.826496238101223
         H 9.692316802730423 -2.0756361047822423 5.826496238101224
         H -1.2751952804771896 6.341485417470993 2.5906252841520145
         H 1.2751952804771907 10.492757627035475 2.590625284152014
         H -1.3647109560600998 7.279518723092818 9.004565040987883
         H 1.3647109560601005 7.279518723092818 7.829678003518588
         H 9.781832478313332 1.1376027991604198 0.5874435187346513
         H 7.052410566193136 1.1376027991604214 -0.5874435187346493
         H 1.1376027991604196 0.5874435187346512 9.781832478313332
         H 1.1376027991604194 -0.5874435187346475 7.052410566193134
         H 7.279518723092818 9.004565040987885 -1.3647109560600996
         H 7.279518723092819 7.829678003518587 1.364710956060104
         H 7.829678003518589 1.3647109560601016 7.279518723092816
         H 9.004565040987883 -1.3647109560600987 7.279518723092817
         H -0.5874435187346494 7.052410566193136 1.1376027991604216
         H 0.5874435187346513 9.781832478313333 1.1376027991604198
      &END COORD
      &CELL
         A -8.417121522253233 8.417121522253233 8.417121522253233
         B 8.417121522253233 -8.417121522253233 8.417121522253233
         C 8.417121522253233 8.417121522253233 -8.417121522253233
         PERIODIC XYZ
         MULTIPLE_UNIT_CELL 1 1 1
      &END CELL
   &END SUBSYS
   &DFT
      BASIS_SET_FILE_NAME BASIS_MOLOPT
      BASIS_SET_FILE_NAME BASIS_MOLOPT_UCL
      POTENTIAL_FILE_NAME GTH_POTENTIALS
      WFN_RESTART_FILE_NAME R2SCAN-RESTART.wfn
      &POISSON
         POISSON_SOLVER PERIODIC
         PERIODIC XYZ
      &END POISSON
      &XC
         DENSITY_CUTOFF 1e-10
         GRADIENT_CUTOFF 1e-10
         TAU_CUTOFF 1e-10
         &VDW_POTENTIAL
            POTENTIAL_TYPE PAIR_POTENTIAL
            &PAIR_POTENTIAL
               TYPE DFTD3(BJ)
               PARAMETER_FILE_NAME dftd3.dat
               REFERENCE_FUNCTIONAL SCAN
            &END PAIR_POTENTIAL
         &END VDW_POTENTIAL
         &XC_FUNCTIONAL NO_SHORTCUT
            &MGGA_C_R2SCAN .TRUE.
            &END MGGA_C_R2SCAN
            &MGGA_X_R2SCAN .TRUE.
            &END MGGA_X_R2SCAN
         &END XC_FUNCTIONAL
      &END XC
      &MGRID
         NGRIDS 4
         CUTOFF 2200.0
         REL_CUTOFF 500.0
      &END MGRID
      &QS
         EPS_DEFAULT 1e-14
      &END QS
      &SCF
         MAX_SCF 200
         EPS_SCF 9.999999999999999e-05
         SCF_GUESS RESTART
         &MIXING .TRUE.
            METHOD BROYDEN_MIXING
            NBUFFER 15
         &END MIXING
      &END SCF
   &END DFT
&END FORCE_EVAL
&GLOBAL
   PRINT_LEVEL MEDIUM
   PROJECT_NAME R2SCAN-Bunitcell-Punitcell
   RUN_TYPE ENERGY_FORCE
&END GLOBAL
