 # Version information for this restart file 
 # current date 2025-07-28 18:59:06.459
 # current working dir /mnt/lustre-grete/usr/u12658/internship/ZIF-8/opt_conv/encut_2200
 # Program compiled at                                       2024-08-21 23:05:22
 # Program compiled on                                                     c0155
 # Program compiled for                                                   x86_64
 # Source code revision number                                                  
 &GLOBAL
   PRINT_LEVEL MEDIUM
   PROJECT_NAME R2SCAN
   RUN_TYPE CELL_OPT
 &END GLOBAL
 &FORCE_EVAL
   METHOD QS
   STRESS_TENSOR ANALYTICAL
   &DFT
     BASIS_SET_FILE_NAME BASIS_MOLOPT
     BASIS_SET_FILE_NAME BASIS_MOLOPT_UCL
     POTENTIAL_FILE_NAME GTH_POTENTIALS
     WFN_RESTART_FILE_NAME R2SCAN-RESTART.wfn
     &SCF
       MAX_SCF 200
       EPS_SCF  9.9999999999999991E-005
       SCF_GUESS RESTART
       &MIXING T
         METHOD BROYDEN_MIXING
         NBUFFER 15
       &END MIXING
     &END SCF
     &QS
       EPS_DEFAULT  1.0000000000000000E-014
     &END QS
     &MGRID
       NGRIDS 4
       CUTOFF  2.2000000000000000E+003
       REL_CUTOFF  5.0000000000000000E+002
     &END MGRID
     &XC
       DENSITY_CUTOFF  1.0000000000000000E-010
       GRADIENT_CUTOFF  1.0000000000000000E-010
       TAU_CUTOFF  1.0000000000000000E-010
       &XC_FUNCTIONAL NO_SHORTCUT
         &MGGA_X_R2SCAN T
         &END MGGA_X_R2SCAN
         &MGGA_C_R2SCAN T
         &END MGGA_C_R2SCAN
       &END XC_FUNCTIONAL
       &VDW_POTENTIAL
         POTENTIAL_TYPE PAIR_POTENTIAL
         &PAIR_POTENTIAL
           TYPE DFTD3(BJ)
           PARAMETER_FILE_NAME dftd3.dat
           REFERENCE_FUNCTIONAL "SCAN"
         &END PAIR_POTENTIAL
       &END VDW_POTENTIAL
     &END XC
     &POISSON
       POISSON_SOLVER PERIODIC
       PERIODIC XYZ
     &END POISSON
   &END DFT
   &SUBSYS
     &CELL
       A  1.6834243046216923E+001  0.0000000000000000E+000  0.0000000000000000E+000
       B  2.9342715720610806E-007  1.6834243044604580E+001  0.0000000000000000E+000
       C  2.9346140958723070E-007  2.9349356910799203E-007  1.6834243042697899E+001
       PERIODIC XYZ
       MULTIPLE_UNIT_CELL 1 1 1
     &END CELL
     &COORD
       Zn  8.4171478168066187E+000  1.2466768383162973E+001 -2.1463693172674378E-005
       Zn -2.6804889291635126E-005  1.2784595117363763E+001  8.4171421264956194E+000
       Zn  1.2784595120599716E+001  8.4171421226758394E+000 -2.7180665776707826E-005
       Zn  1.2466768528905872E+001 -2.1312310470715206E-005  8.4171476041832367E+000
       Zn  8.4171420921380395E+000 -2.4152420675918486E-005  4.0496378770092525E+000
       Zn -1.8561065626007284E-005  8.4171478816376766E+000  4.3674829253838725E+000
       C  8.3118024919045368E+000  1.4679576663958018E+001  1.9856443789448790E+000
       C  8.5224692764996508E+000  1.4679640628225391E+001  1.4848628990755090E+001
       C  1.0530454820002236E-001  1.0571754109808261E+001  1.0402770615796133E+001
       C  1.6728879280863335E+001  1.0571759303262194E+001  6.4315112584368235E+000
       C  1.0571754121294948E+001  1.0402770622596915E+001  1.0530417499708827E-001
       C  1.0571759589764929E+001  6.4315115543966224E+000  1.6728878981624565E+001
       C  1.4679576810478361E+001  1.9856445305606061E+000  8.3118022122683719E+000
       C  1.4679640777408412E+001  1.4848629143629356E+001  8.5224687616288222E+000
       C  6.4314434397306561E+000  1.0533003593983868E-001  6.2624658300864668E+000
       C  1.0402770756223124E+001  1.6728885261837299E+001  6.2625291395372864E+000
       C  1.4848560768564811E+001  8.3118084243450081E+000  2.1546214502844352E+000
       C  1.9856454146089522E+000  8.5224960891373929E+000  2.1546274852169245E+000
       N  9.0016352411844984E+000  1.3639449084097638E+001  1.4756978765988880E+000
       N  7.8326510751993474E+000  1.3639489908522339E+001  1.5358499599462665E+001
       N  1.6249703046884179E+001  1.1611878239160859E+001  9.8928883129707614E+000
       N  5.8444392427177827E-001  1.1611911836643646E+001  6.9414448638762787E+000
       N  1.1611878528557185E+001  9.8928885931154120E+000  1.6249702662791481E+001
       N  1.1611911843814308E+001  6.9414448692425612E+000  5.8444359594410089E-001
       N  1.3639449239353509E+001  1.4756980372910811E+000  9.0016349836860172E+000
       N  1.3639490035699559E+001  1.5358499754782748E+001  7.8326505832224340E+000
       N  6.9414917619863132E+000  1.6249771937129360E+001  5.2222903384193717E+000
       N  9.8927981305423831E+000  5.8442823368117380E-001  5.2223304729454858E+000
       N  1.5358545628700270E+001  9.0016193662399182E+000  3.1947945369130686E+000
       N  1.4756100706048820E+000  7.8327203948848414E+000  3.1948283870552476E+000
       N  1.5328333032010232E+001  1.3903321574483384E+001  7.8141168938988876E+000
       N  1.5058545381503885E+000  1.3903282999596524E+001  9.0201744008434819E+000
       N  6.9112893583606034E+000  1.1348073956684527E+001  6.0298355889237276E-001
       N  9.9230563425650278E+000  1.1348051229414562E+001  1.6231169655481157E+001
       N  6.0296825357539507E-001  9.9229614356604525E+000  5.4861829539912907E+000
       N  1.6231226835018436E+001  6.9113389656283148E+000  5.4861451575972211E+000
       N  7.8141746327682720E+000  1.5057619167368856E+000  2.9309698790823266E+000
       N  9.0201588397373147E+000  1.5328381834054605E+001  2.9309460781341592E+000
       N  1.1348051399371698E+001  1.6231169836937571E+001  9.9230558636083543E+000
       N  1.1348074083424757E+001  6.0298368344595776E-001  6.9112891586111838E+000
       N  1.3903283029819818E+001  9.0201744197859206E+000  1.5058541328349428E+000
       N  1.3903321851332516E+001  7.8141171497841366E+000  1.5328332631750310E+001
       C  1.0221480675360114E+001  1.3637097867467375E+001  2.1218056630839794E+000
       C  6.6127572708174407E+000  1.3637128974982412E+001  1.4712429904558700E+001
       C  1.5029852290304699E+001  1.1614213645870006E+001  1.0538975889972781E+001
       C  1.8043338803533333E+000  1.1614288203030894E+001  6.2953554610904989E+000
       C  1.1614213911401137E+001  1.0538976152048035E+001  1.5029851903382642E+001
       C  1.1614288231497824E+001  6.2953554933454789E+000  1.8043335662589670E+000
       C  1.3637098053254729E+001  2.1218058481745605E+000  1.0221480404196033E+001
       C  1.3637129080516274E+001  1.4712430035296745E+001  6.6127567830641416E+000
       C  6.2953528743671496E+000  1.5029885544487316E+001  5.2199382944214880E+000
       C  1.0538899718020101E+001  1.8043626099199934E+000  5.2199681699850204E+000
       C  1.4712426580999200E+001  1.0221510345479162E+001  3.1971310587229507E+000
       C  2.1217314529516531E+000  6.6127890432327421E+000  3.1972046038059556E+000
       C  1.4672805964382304E+001  1.3819460578509895E+001  6.6009240251952663E+000
       C  2.1614214288255291E+000  1.3819430187433774E+001  1.0233312999394069E+001
       C  6.2557432294134658E+000  1.1431951468411905E+001  1.8161670283094935E+000
       C  1.0578604114196741E+001  1.1431887503454327E+001  1.5018020346834312E+001
       C  1.8161942849052970E+000  1.0578522457340354E+001  5.4023027102059835E+000
       C  1.5018054273935515E+001  6.2557387961361774E+000  5.4022734442366520E+000
       C  6.6009571359872217E+000  2.1613429834296869E+000  3.0148660118411201E+000
       C  1.0233341329678362E+001  1.4672800869471335E+001  3.0148007386608668E+000
       C  1.1431887687074546E+001  1.5018020530398346E+001  1.0578603652441721E+001
       C  1.1431951584275611E+001  1.8161671383350670E+000  6.2557430002858254E+000
       C  1.3819430220733681E+001  1.0233313032636955E+001  2.1614210006238963E+000
       C  1.3819460845220927E+001  6.6009242743030834E+000  1.4672805589771929E+001
       H  1.0977284712644311E+001  1.2904249930758906E+001  1.8908141718019904E+000
       H  5.8569547782315317E+000  1.2904243861394731E+001  1.4943422411022686E+001
       H  1.4274163255863590E+001  1.2347030017627496E+001  1.0307966050656924E+001
       H  2.5602499233161464E+000  1.2347204061083366E+001  6.5263317171691497E+000
       H  1.2347030263424966E+001  1.0307966300916879E+001  1.4274162862016739E+001
       H  1.2347204105432590E+001  6.5263317612762179E+000  2.5602495921196713E+000
       H  1.2904250134577634E+001  1.8908143671521764E+000  1.0977284440982869E+001
       H  1.2904243935384086E+001  1.4943422524019143E+001  5.8569542633222342E+000
       H  6.5263475672515741E+000  1.4273958899159114E+001  4.4870016177309449E+000
       H  1.0307900844618576E+001  2.5602892303175255E+000  4.4869969828575522E+000
       H  1.4943438352882673E+001  1.0977323510226322E+001  3.9300364610853435E+000
       H  1.8907487970210690E+000  5.8567505363372732E+000  3.9302069567189664E+000
       H  1.5001898425532055E+001  1.3138136242816474E+001  5.8335205932133425E+000
       H  1.8323410493371863E+000  1.3138142429038538E+001  1.1000717355351288E+001
       H  6.5848167946654010E+000  1.2113307327642328E+001  2.5836836337377478E+000
       H  1.0249501818068710E+001  1.2113141107088387E+001  1.4250729833697720E+001
       H  2.5837218672790279E+000  1.0249410039378738E+001  4.7208997174567937E+000
       H  1.4250527242044178E+001  6.5848360932482324E+000  4.7209035070663630E+000
       H  5.8333174147020319E+000  1.8322484802694283E+000  3.6962998624398171E+000
       H  1.1000755272291261E+001  1.5001917785764094E+001  3.6961386280307336E+000
       H  1.2113141292220741E+001  1.4250730008516257E+001  1.0249501354659657E+001
       H  1.2113307448737389E+001  2.5836837543782609E+000  6.5848165403223167E+000
       H  1.3138142449630038E+001  1.1000717401907909E+001  1.8323406222536862E+000
       H  1.3138136531421154E+001  5.8335208818028885E+000  1.5001898079990317E+001
       C  6.9687986424470338E+000  1.5106096389186437E+001  1.5053116868892087E+000
       C  9.8655138486315472E+000  1.5106102760632254E+001  1.5328895805610822E+001
       C  1.4483289481407813E+000  1.0145268309026569E+001  9.9224737973552912E+000
       C  1.5385855939233126E+001  1.0145261173062645E+001  6.9118163533691535E+000
       C  1.0145268336810743E+001  9.9224738196717528E+000  1.4483285887247030E+000
       C  1.0145261442339951E+001  6.9118166185390502E+000  1.5385855631552394E+001
       C  1.5106096509542818E+001  1.5053118175587912E+000  6.9687983612626763E+000
       C  1.5106102933233288E+001  1.5328895981283940E+001  9.8655133205233021E+000
       C  6.9118053086778808E+000  1.4483174679767823E+000  6.6890069849360705E+000
       C  9.9224731645483910E+000  1.5385856838391888E+001  6.6890138575504476E+000
       C  1.5328885523455456E+001  6.9687995327437262E+000  1.7281149733124996E+000
       C  1.5053095807586632E+000  9.8655033548418487E+000  1.7281069529089395E+000
       H  6.4669572913541025E+000  1.5720106830133263E+001  2.2534326838193390E+000
       H  1.9501972244900745E+000  7.3030277247406588E+000  6.1636407002585605E+000
       H  1.0367279986666988E+001  1.1141372191911751E+000  2.2534329642258109E+000
       H  1.4884117823403662E+001  9.5313025338191757E+000  6.1637377985256414E+000
       H  9.5313158659440234E+000  1.0670475071751998E+001  1.9501246849704039E+000
       H  1.1141510262194922E+000  1.4580840299519503E+001  6.4669640901864165E+000
       H  7.3029267588920908E+000  1.0670475480208376E+001  1.4884124426264139E+001
       H  1.5720004844725187E+001  1.4580938199086402E+001  1.0367208334534157E+001
       H  1.4580938483806644E+001  1.0367208604541704E+001  1.5720004398886273E+001
       H  1.0670475623377687E+001  1.4884124545038690E+001  7.3029263248997927E+000
       H  1.4580840328892648E+001  6.4669641166142640E+000  1.1141506664159944E+000
       H  1.0670475230935029E+001  1.9501248451416222E+000  9.5313156515390833E+000
       H  6.3414689602049705E+000  1.4243607823242883E+001  1.2751893699019801E+000
       H  1.0492687058567926E+001  1.4243725844142451E+001  1.5559019761805164E+001
       H  2.0756148026534045E+000  1.1007697863096826E+001  9.6923245323105132E+000
       H  1.4758640976539469E+001  1.1007697525747156E+001  7.1419119599962588E+000
       H  1.1007697913238351E+001  9.6923245660499280E+000  2.0756144513016181E+000
       H  1.1007697769582304E+001  7.1419122137327946E+000  1.4758640667725492E+001
       H  1.4243607923181900E+001  1.2751894766895904E+000  6.3414686786604468E+000
       H  1.4243726017110820E+001  1.5559019948706315E+001  1.0492686543150917E+001
       H  7.1419548426483956E+000  2.0757088903387175E+000  5.8263885760707224E+000
       H  9.6923221595221278E+000  1.4758622851297046E+001  5.8265052691061623E+000
       H  1.5559063164550627E+001  6.3414507134726836E+000  2.5906752797223072E+000
       H  1.2751867217160668E+000  1.0492780444116862E+001  2.5906751394577969E+000
       H  7.0524039849942408E+000  1.5696651302694070E+001  5.8742555160730181E-001
       H  9.7818347690649858E+000  1.5696588492706010E+001  1.6246716492577907E+001
       H  1.3647242419056633E+000  9.5547405311905678E+000  9.0045917461946043E+000
       H  1.5469535963984121E+001  9.5547495353109255E+000  7.8296393019714046E+000
       H  9.5547405486502175E+000  9.0045917598985437E+000  1.3647239187955003E+000
       H  9.5547498134019673E+000  7.8296395601300945E+000  1.5469535658355962E+001
       H  1.5696651436641938E+001  5.8742565907329414E-001  7.0524036995516841E+000
       H  1.5696588671795793E+001  1.6246716677239860E+001  9.7818342064871562E+000
       H  7.8297609102066170E+000  1.3647097354066371E+000  7.2795691046351028E+000
       H  9.0045824818756710E+000  1.5469538175864432E+001  7.2795067756938252E+000
       H  1.6246839138563608E+001  7.0524061556227995E+000  1.1375787634355912E+000
       H  5.8741544183206618E-001  9.7818211081212159E+000  1.1375871191241687E+000
       Zn -2.4005213164415991E-005  4.0496380296938090E+000  8.4171420245204924E+000
       Zn  8.4171478824695765E+000  4.3674829267812658E+000 -1.8788835682187198E-005
       Zn  4.3674830759698997E+000 -1.8637350822077973E-005  8.4171478103503752E+000
       Zn  4.0496380281008255E+000  8.4171420213290773E+000 -2.4228884824656777E-005
       Zn -2.1094728618822488E-005  8.4171478167140688E+000  1.2466768384975719E+001
       Zn  8.4171423463053809E+000 -2.6951879047867381E-005  1.2784594972819241E+001
       C  1.6728885447173369E+001  6.2625293261956498E+000  1.0402770350789680E+001
       C  1.0533015028544791E-001  6.2624659395491493E+000  6.4314433311520025E+000
       C  8.5224961259347296E+000  2.1546275267008048E+000  1.9856452228666608E+000
       C  8.3118086858492539E+000  2.1546217073101475E+000  1.4848560587625657E+001
       C  2.1546276685211159E+000  1.9856453695957446E+000  8.5224960499527658E+000
       C  2.1546218601010527E+000  1.4848560729228449E+001  8.3118083967727046E+000
       C  6.2625296165012969E+000  1.0402770638823515E+001  1.6728885150226713E+001
       C  6.2624659409812562E+000  6.4314433296372853E+000  1.0532991743731521E-001
       C  1.4848629401784352E+001  8.5224690170829849E+000  1.4679640363546083E+001
       C  1.9856447782043833E+000  8.3118024608267316E+000  1.4679576631408146E+001
       C  6.4315117402577133E+000  1.6728879171102257E+001  1.0571759188440042E+001
       C  1.0402770799165056E+001  1.0530436636587892E-001  1.0571753934472444E+001
       N  5.8442841343471419E-001  5.2223306567900183E+000  9.8927980436274403E+000
       N  1.6249772059811505E+001  5.2222904619797639E+000  6.9414913860975584E+000
       N  7.8327204189791084E+000  3.1948284125385138E+000  1.4756098780628180E+000
       N  9.0016196428427797E+000  3.1947947954655724E+000  1.5358545396737487E+001
       N  3.1948285510443610E+000  1.4756100142557120E+000  7.8327203442598847E+000
       N  3.1947949634952382E+000  1.5358545566327004E+001  9.0016193198480448E+000
       N  5.2223306637222704E+000  9.8927980464677550E+000  5.8442813961562790E-001
       N  5.2222907494999076E+000  6.9414916586975863E+000  1.6249771831930349E+001
       N  1.5358499978062058E+001  7.8326508061937004E+000  1.3639489638234776E+001
       N  1.4756982871712394E+000  9.0016352226638467E+000  1.3639449064691963E+001
       N  6.9414450631541120E+000  5.8444381212876506E-001  1.1611911707623459E+001
       N  9.8928887998721802E+000  1.6249702869515314E+001  1.1611878067631869E+001
       N  6.9113392375568914E+000  5.4861454426992555E+000  1.6231226603961876E+001
       N  9.9229614526088330E+000  5.4861829680191825E+000  6.0296797946535707E-001
       N  1.5328381989161567E+001  2.9309462402173505E+000  9.0201585298736759E+000
       N  1.5057620525717650E+000  2.9309700179842655E+000  7.8141745598001249E+000
       N  9.0201746691114053E+000  1.5058543924824455E+000  1.3903282848627144E+001
       N  7.8141173904261514E+000  1.5328332876333878E+001  1.3903321443263987E+001
       N  1.6231170032709599E+001  9.9230560639070937E+000  1.1348050942412655E+001
       N  6.0298389057554602E-001  6.9112893379170561E+000  1.1348073944333338E+001
       N  2.9309700431634997E+000  7.8141745792121728E+000  1.5057618654577818E+000
       N  2.9309464974870716E+000  9.0201587952244928E+000  1.5328381763136399E+001
       N  5.4861831441202291E+000  6.0296816210239479E-001  9.9229613542011510E+000
       N  5.4861455604311455E+000  1.6231226737425160E+001  6.9113388713418997E+000
       C  1.8043627993330871E+000  5.2199683664240153E+000  1.0538899605892563E+001
       C  1.5029885657866791E+001  5.2199384040915291E+000  6.2953525192199251E+000
       C  6.6127890838114975E+000  3.1972046437690507E+000  2.1217312793173817E+000
       C  1.0221510607144985E+001  3.1971313059427042E+000  1.4712426335011040E+001
       C  3.1972047578669676E+000  2.1217313927722197E+000  6.6127889902247583E+000
       C  3.1971314894510487E+000  1.4712426518770485E+001  1.0221510291316797E+001
       C  5.2199683912041648E+000  1.0538899628484408E+001  1.8043625157994880E+000
       C  5.2199386763047961E+000  6.2953527721754572E+000  1.5029885449387029E+001
       C  1.4712430261966849E+001  6.6127570178105222E+000  1.3637128715804289E+001
       C  2.1218060903311531E+000  1.0221480641346446E+001  1.3637097840721180E+001
       C  6.2953556896541594E+000  1.8043337726583764E+000  1.1614288082932550E+001
       C  1.0538976352670602E+001  1.5029852110080236E+001  1.1614213463938894E+001
       C  6.2557390470367951E+000  5.4022737149091613E+000  1.5018054064947863E+001
       C  1.0578522490734844E+001  5.4023027458747608E+000  1.8161940022657437E+000
       C  1.4672801044954086E+001  3.0148009140366887E+000  1.0233341021335960E+001
       C  2.1613430938568721E+000  3.0148661274828230E+000  6.6009570478052888E+000
       C  1.0233313278366618E+001  2.1614212538387325E+000  1.3819430011516589E+001
       C  6.6009245184052512E+000  1.4672805833420250E+001  1.3819460470886114E+001
       C  1.5018020735317387E+001  1.0578603848990701E+001  1.1431887239955135E+001
       C  1.8161673408748107E+000  6.2557431904841341E+000  1.1431951431504173E+001
       C  3.0148661664790763E+000  6.6009570860858426E+000  2.1613429272759181E+000
       C  3.0148011639835848E+000  1.0233341280040953E+001  1.4672800804407508E+001
       C  5.4023029371267040E+000  1.8161941950879497E+000  1.0578522374136261E+001
       C  5.4022738152882503E+000  1.5018054180481723E+001  6.2557387016963366E+000
       H  2.5602893873622898E+000  4.4869971864437188E+000  1.0307900727753347E+001
       H  1.4273959016232018E+001  4.4870017344840010E+000  6.5263472385886621E+000
       H  5.8567505750164539E+000  3.9302069847552201E+000  1.8907486274410950E+000
       H  1.0977323747876660E+001  3.9300366974484189E+000  1.4943438081558524E+001
       H  3.9302070953584525E+000  1.8907487279835475E+000  5.8567504645807338E+000
       H  3.9300368952914702E+000  1.4943438277180841E+001  1.0977323422083900E+001
       H  4.4869972161220808E+000  1.0307900768358742E+001  2.5602891440966271E+000
       H  4.4870020079931772E+000  6.5263474803323769E+000  1.4273958845427439E+001
       H  1.4943422740689412E+001  5.8569545195940140E+000  1.2904243602054263E+001
       H  1.8908145965755914E+000  1.0977284655278121E+001  1.2904249920529978E+001
       H  6.5263319697942563E+000  2.5602497848936054E+000  1.2347203921077542E+001
       H  1.0307966518288803E+001  1.4274163080791483E+001  1.2347029830118649E+001
       H  6.5848363309529301E+000  4.7209037804488974E+000  1.4250527067680434E+001
       H  1.0249410087351635E+001  4.7208997663335737E+000  2.5837216023838834E+000
       H  1.5001917971204433E+001  3.6961388038279197E+000  1.1000754926324825E+001
       H  1.8322485816660465E+000  3.6962999671448591E+000  5.8333173147967941E+000
       H  1.1000717610055407E+001  1.8323408618139487E+000  1.3138142244821191E+001
       H  5.8335211159091926E+000  1.5001898308735781E+001  1.3138136169986753E+001
       H  1.4250730228943308E+001  1.0249501570524854E+001  1.2113140854721836E+001
       H  2.5836839377125211E+000  6.5848167389862278E+000  1.2113307259658463E+001
       H  3.6962999914884049E+000  5.8333173556277469E+000  1.8322484182679575E+000
       H  3.6961390572682649E+000  1.1000755181131687E+001  1.5001917707652789E+001
       H  4.7208999607048288E+000  2.5837217652001034E+000  1.0249409965224636E+001
       H  4.7209038732214452E+000  1.4250527160422227E+001  6.5848360095379750E+000
       C  1.5385857011778684E+001  6.6890140293941336E+000  9.9224727829225170E+000
       C  1.4483175894566291E+000  6.6890071046311679E+000  6.9118051702591838E+000
       C  9.8655033820775664E+000  1.7281069840412866E+000  1.5053093721438280E+000
       C  6.9687997984723831E+000  1.7281152453384911E+000  1.5328885365068924E+001
       C  1.7281071574570859E+000  1.5053095516387860E+000  9.8655033294843140E+000
       C  1.7281153699653860E+000  1.5328885488724740E+001  6.9687995105427625E+000
       C  6.6890142978760352E+000  9.9224730466424234E+000  1.5385856712811275E+001
       C  6.6890071282493224E+000  6.9118051909887717E+000  1.4483173439143358E+000
       C  1.5328896248883600E+001  9.8655135806158096E+000  1.5106102489183980E+001
       C  1.5053120771719304E+000  6.9687986151453600E+000  1.5106096358576131E+001
       C  6.9118167959986820E+000  1.5385855815961014E+001  1.0145261057147103E+001
       C  9.9224739954440722E+000  1.4483287744537683E+000  1.0145268140491048E+001
       H  1.4884124741931583E+001  7.3029264980207431E+000  1.0670475217238749E+001
       H  1.0367208858996586E+001  1.5720004653632360E+001  1.4580938029415707E+001
       H  1.9501250285812284E+000  9.5313158430852969E+000  1.0670475021891257E+001
       H  6.4669643799575223E+000  1.1141509322337677E+000  1.4580840208682252E+001
       H  1.1141374048113979E+000  2.2534331392733558E+000  1.0367279922286743E+001
       H  9.5313028058970364E+000  6.1637380735720715E+000  1.4884117555900399E+001
       H  1.5720106950745642E+001  2.2534328031749693E+000  6.4669569704243735E+000
       H  7.3030277578650304E+000  6.1636407386805052E+000  1.9501969889778126E+000
       H  6.1636408638929643E+000  1.9501971175058377E+000  7.3030276169849309E+000
       H  2.2534330561846549E+000  6.4669572598257972E+000  1.5720106777136758E+001
       H  6.1637382382985981E+000  1.4884117721827188E+001  9.5313024353318134E+000
       H  2.2534331601505482E+000  1.0367279944838295E+001  1.1141371826918824E+000
       H  1.4758623033058116E+001  5.8265054577222601E+000  9.6923218029488787E+000
       H  2.0757090119567798E+000  5.8263887069380678E+000  7.1419547021443375E+000
       H  1.0492780465367090E+001  2.5906751575488922E+000  1.2751864945245295E+000
       H  6.3414509971877191E+000  2.5906755320175288E+000  1.5559063000956906E+001
       H  2.5906753372119087E+000  1.2751866788243393E+000  1.0492780392627376E+001
       H  2.5906756664754695E+000  1.5559063119922998E+001  6.3414506618594704E+000
       H  5.8265057180533057E+000  9.6923220629405282E+000  1.4758622762354637E+001
       H  5.8263887452360086E+000  7.1419547393045431E+000  2.0757087860759382E+000
       H  1.5559020195525793E+001  1.0492686784961702E+001  1.4243725574958951E+001
       H  1.2751897326718764E+000  6.3414689473610188E+000  1.4243607816278294E+001
       H  7.1419124064012580E+000  1.4758640861028859E+001  1.1007697382378764E+001
       H  9.6923247630738985E+000  2.0756146329430618E+000  1.1007697690168310E+001
       H  1.5469538332532700E+001  7.2795069242902297E+000  9.0045820979062547E+000
       H  1.3647098723498061E+000  7.2795692387911402E+000  7.8297607533274842E+000
       H  9.7818211195785505E+000  1.1375871303586862E+000  5.8741525332219269E-001
       H  7.0524064379678979E+000  1.1375790546041962E+000  1.6246838979135600E+001
       H  1.1375873005342285E+000  5.8741542261486324E-001  9.7818210852065093E+000
       H  1.1375791626036615E+000  1.6246839128527725E+001  7.0524061345322071E+000
       H  7.2795071927267516E+000  9.0045823718689615E+000  1.5469538047166248E+001
       H  7.2795692638179661E+000  7.8297607782131733E+000  1.3647096106609895E+000
       H  1.6246716937907834E+001  9.7818344851298953E+000  1.5696588206079918E+001
       H  5.8742596029475036E-001  7.0524039724142185E+000  1.5696651283135408E+001
       H  7.8296397284374537E+000  1.5469535824767114E+001  9.5547494042071595E+000
       H  9.0045919382997290E+000  1.3647240850100280E+000  9.5547403725911284E+000
     &END COORD
     &KIND "H"
       BASIS_SET "TZV2P-MOLOPT-GTH-q1"
       POTENTIAL "GTH-PBE-q1"
       &POTENTIAL
 1
 2.0000000000000001E-001 2 -4.1789004399999996E+000  7.2446330999999997E-001
 0
       &END POTENTIAL
     &END KIND
     &KIND "C"
       BASIS_SET "TZV2P-MOLOPT-GTH-q4"
       POTENTIAL "GTH-PBE-q4"
       &POTENTIAL
 2 2
 3.3847124000000001E-001 2 -8.8036739799999992E+000  1.3392108500000000E+000
 2
 3.0257574999999998E-001 1  9.6224866500000008E+000
 2.9150693999999999E-001 0
       &END POTENTIAL
     &END KIND
     &KIND "N"
       BASIS_SET "TZV2P-MOLOPT-GTH-q5"
       POTENTIAL "GTH-PBE-q5"
       &POTENTIAL
 2 3
 2.8379051000000000E-001 2 -1.2415225590000000E+001  1.8680959200000000E+000
 2
 2.5540499999999999E-001 1  1.3630262569999999E+001
 2.4549452999999999E-001 0
       &END POTENTIAL
     &END KIND
     &KIND "Zn"
       BASIS_SET "TZV2P-MOLOPT-SR-GTH-q12"
       POTENTIAL "GTH-PBE-q12"
       &POTENTIAL
 2 0 10
 5.1000000000000001E-001 0
 3
 4.0031644000000000E-001 3  1.1530041330000000E+001 -8.7918981499999997E+000  3.1450864400000000E+000
 1.6465775180000001E+001 -8.1205782699999993E+000
 6.4455091800000002E+000
 5.4318233000000005E-001 2  2.5971951199999999E+000 -5.9426274999999995E-001
 7.0314116999999998E-001
 2.5095885000000001E-001 1 -1.4466957949999999E+001
       &END POTENTIAL
     &END KIND
   &END SUBSYS
 &END FORCE_EVAL
