# Generated by Phonopy, based on Bunitcell.inp
# Merged configuration with displacements
&GLOBAL
   PRINT_LEVEL MEDIUM
   PROJECT_NAME R2SCAN-Bunitcell-supercell-035
   RUN_TYPE ENERGY_FORCE
&END GLOBAL
&FORCE_EVAL
   METHOD QS
   STRESS_TENSOR ANALYTICAL
   &DFT
      BASIS_SET_FILE_NAME BASIS_MOLOPT
      BASIS_SET_FILE_NAME BASIS_MOLOPT_UCL
      POTENTIAL_FILE_NAME GTH_POTENTIALS
      WFN_RESTART_FILE_NAME R2SCAN-RESTART.wfn
      &SCF
         MAX_SCF 200
         EPS_SCF 9.999999999999999e-05
         SCF_GUESS RESTART
         &MIXING .TRUE.
            METHOD BROYDEN_MIXING
            NBUFFER 15
         &END MIXING
      &END SCF
      &QS
         EPS_DEFAULT 1e-14
      &END QS
      &MGRID
         NGRIDS 4
         CUTOFF 2200.0
         REL_CUTOFF 500.0
      &END MGRID
      &XC
         DENSITY_CUTOFF 1e-10
         GRADIENT_CUTOFF 1e-10
         TAU_CUTOFF 1e-10
         &XC_FUNCTIONAL NO_SHORTCUT
            &MGGA_X_R2SCAN .TRUE.
            &END MGGA_X_R2SCAN
            &MGGA_C_R2SCAN .TRUE.
            &END MGGA_C_R2SCAN
         &END XC_FUNCTIONAL
         &VDW_POTENTIAL
            POTENTIAL_TYPE PAIR_POTENTIAL
            &PAIR_POTENTIAL
               TYPE DFTD3(BJ)
               PARAMETER_FILE_NAME dftd3.dat
               REFERENCE_FUNCTIONAL SCAN
            &END PAIR_POTENTIAL
         &END VDW_POTENTIAL
      &END XC
      &POISSON
         POISSON_SOLVER PERIODIC
         PERIODIC XYZ
      &END POISSON
   &END DFT
   &SUBSYS
      &CELL
         A 16.83424304450647 0.0 0.0
         B 0.0 16.83424304450647 0.0
         C 0.0 0.0 16.83424304450647
         PERIODIC XYZ
         MULTIPLE_UNIT_CELL 1 1 1
      &END CELL
      &COORD
         Zn 8.417121522253234 12.466764348542792 0.0
         Zn 0.0 12.78460021821691 8.417121522253234
         Zn 12.78460021821691 8.417121522253234 0.0
         Zn 12.466764348542792 0.0 8.417121522253234
         Zn 0.0 8.417121522253234 12.466764348542792
         Zn 8.417121522253234 0.0 12.78460021821691
         C 8.311783370193744 14.67961410255994 1.9856470589953663
         C 8.522459674312724 14.67961410255994 14.848595985511102
         C 0.10533815205948992 10.571750464199766 10.402768581248601
         C 16.72890489244698 10.571750464199766 6.431474463257868
         C 10.571750464199766 10.402768581248601 0.10533815205948992
         C 10.571750464199766 6.431474463257868 16.72890489244698
         C 14.67961410255994 1.9856470589953663 8.311783370193744
         C 14.67961410255994 14.848595985511102 8.522459674312724
         C 14.848595985511102 8.522459674312724 14.67961410255994
         C 1.9856470589953663 8.311783370193744 14.67961410255994
         C 6.431474463257868 16.72890489244698 10.571750464199766
         C 10.402768581248601 0.10533815205948992 10.571750464199766
         N 9.001592778023026 13.639450986823787 1.4756876541864634
         N 7.8326502664834425 13.639450986823787 15.358555390320005
         N 16.249771788736677 11.611913579935916 9.892809176439698
         N 0.5844712557697914 11.611913579935916 6.94143386806677
         N 11.611913579935916 9.892809176439698 16.249771788736677
         N 11.611913579935916 6.94143386806677 0.5844712557697914
         N 13.639450986823787 1.4756876541864634 9.001592778023026
         N 13.639450986823787 15.358555390320005 7.8326502664834425
         N 15.358555390320005 7.8326502664834425 13.639450986823787
         N 1.4756876541864634 9.001592778023026 13.639450986823787
         N 6.94143386806677 0.5844712557697914 11.611913579935916
         N 9.892809176439698 16.249771788736677 11.611913579935916
         N 15.328396969761256 13.903294514463637 7.814111443684641
         N 1.5058460747452127 13.903294514463637 9.02013160082183
         N 6.911275447508023 11.348070052296066 0.6030100785685937
         N 9.922967596998447 11.348070052296066 16.231232965937874
         N 9.02013160082183 1.5058460747452127 13.903294514463637
         N 7.814111443684641 15.328396969761256 13.903294514463637
         N 16.231232965937874 9.922967596998447 11.348070052296066
         N 0.6030100785685937 6.911275447508023 11.348070052296066
         N 11.348070052296066 16.231232965937874 9.922967596998447
         N 11.348070052296066 0.6030100785685937 6.911275447508023
         N 13.903294514463637 9.02013160082183 1.5058460747452127
         N 13.903294514463637 7.814111443684641 15.328396969761256
         C 10.22148267671399 13.637094222061272 2.1217923286309848
         C 6.612760367792479 13.637094222061272 14.712450715875484
         C 15.029881890045713 11.614270344698431 10.538913850884219
         C 1.8043611544607572 11.614270344698431 6.2953291936222495
         C 11.614270344698431 10.538913850884219 15.029881890045713
         C 11.614270344698431 6.2953291936222495 1.8043611544607572
         C 13.637094222061272 2.1217923286309848 10.22148267671399
         C 13.637094222061272 14.712450715875484 6.612760367792479
         C 14.712450715875484 6.612760367792479 13.637094222061272
         C 2.1217923286309848 10.22148267671399 13.637094222061272
         C 6.2953291936222495 1.8043611544607572 11.614270344698431
         C 10.538913850884219 15.029881890045713 11.614270344698431
         C 14.672833363364372 13.81942817373335 6.6009287396954885
         C 2.161409681142097 13.81942817373335 10.23331430481098
         C 6.255711841111137 11.431936393026353 1.8161927825577453
         C 10.57853120339533 11.431936393026353 15.018050261948723
         C 10.23331430481098 2.161409681142097 13.81942817373335
         C 6.6009287396954885 14.672833363364372 13.81942817373335
         C 15.018050261948723 10.57853120339533 11.431936393026353
         C 1.8161927825577453 6.255711841111137 11.431936393026353
         C 11.431936393026353 15.018050261948723 10.57853120339533
         C 11.431936393026353 1.8161927825577453 6.255711841111137
         C 13.81942817373335 10.23331430481098 2.161409681142097
         C 13.81942817373335 6.6009287396954885 14.672833363364372
         H 10.967348006095582 12.904184667748405 1.8907971438955657
         H 5.8568950384108875 12.904184667748405 14.943445900610904
         H 14.274016560664121 12.347179899011298 10.3079186661488
         H 2.5602264838423476 12.347179899011298 6.5263243783576685
         H 12.347179899011298 10.3079186661488 14.274016560664121
         H 12.347179899011298 6.5263243783576685 2.5602264838423476
         H 12.904184667748405 1.8907971438955657 10.977348006095582
         H 12.904184667748405 14.943445900610904 5.8568950384108875
         H 14.943445900610904 5.8568950384108875 12.904184667748405
         H 1.8907971438955657 10.977348006095582 12.904184667748405
         H 6.5263243783576685 2.5602264838423476 12.347179899011298
         H 10.3079186661488 14.274016560664121 12.347179899011298
         H 15.00192826111878 13.138081052040711 5.8334635249883595
         H 1.8323147833876894 13.138081052040711 11.000779519518108
         H 6.584806738865545 12.113283514718992 2.5836579972648748
         H 10.249436305640923 12.113283514718992 14.250585047241598
         H 11.000779519518108 1.8323147833876894 13.138081052040711
         H 5.8334635249883595 15.00192826111878 13.138081052040711
         H 14.250585047241598 10.249436305640923 12.113283514718992
         H 2.5836579972648748 6.584806738865545 12.113283514718992
         H 12.113283514718992 14.250585047241598 10.249436305640923
         H 12.113283514718992 2.5836579972648748 6.584806738865545
         H 13.138081052040711 11.000779519518108 1.8323147833876894
         H 13.138081052040711 5.8334635249883595 15.00192826111878
         C 6.968767228843068 15.10611632514487 1.5053319289823472
         C 9.865475815663402 15.10611632514487 15.328911115524122
         C 1.448354293410167 10.145248241614834 9.922453451235581
         C 15.385888751096301 10.145248241614834 6.911789593270886
         C 10.145248241614834 9.922453451235581 1.448354293410167
         C 10.145248241614834 6.911789593270886 15.385888751096301
         C 15.10611632514487 1.5053319289823472 6.968767228843068
         C 15.10611632514487 15.328911115524122 9.865475815663402
         C 15.328911115524122 9.865475815663402 15.10611632514487
         C 1.5053319289823472 6.968767228843068 15.10611632514487
         C 6.911789593270886 15.385888751096301 10.145248241614834
         C 9.922453451235581 1.448354293410167 10.145248241614834
         H 14.884101916935176 7.302956244632823 10.670515166939131
         H 10.367262649824527 15.720077766886059 14.580849399820572
         H 1.950141127571292 9.531286799873644 10.670515166939131
         H 6.466980394681942 1.1141652776204107 14.580849399820572
         H 9.531286799873644 10.670515166939131 1.950141127571292
         H 1.1141652776204107 14.580849399820572 6.466980394681942
         H 7.302956244632823 10.670515166939131 14.884101916935176
         H 15.720077766886059 14.580849399820572 10.367262649824527
         H 14.580849399820572 10.367262649824527 15.720077766886059
         H 10.670515166939131 14.884101916935176 7.302956244632823
         H 14.580849399820572 6.466980394681942 1.1141652776204107
         H 10.670515166939131 1.950141127571292 9.531286799873644
         H 6.341485417470992 14.243617760354457 1.27519528047719
         H 10.492757627035477 14.243617760354457 15.559047764029279
         H 2.0756361047822427 11.007746806405246 9.692316802730424
         H 14.758606939724226 11.007746806405246 7.141926241776044
         H 11.007746806405246 9.692316802730424 2.0756361047822427
         H 11.007746806405246 7.141926241776044 14.758606939724226
         H 14.243617760354457 1.27519528047719 6.341485417470992
         H 14.243617760354457 15.559047764029279 10.492757627035477
         H 15.559047764029279 10.492757627035477 14.243617760354457
         H 1.27519528047719 6.341485417470992 14.243617760354457
         H 7.141926241776044 14.758606939724226 11.007746806405246
         H 9.692316802730424 2.0756361047822427 11.007746806405246
         H 7.052410566193136 15.696640245346051 0.5874435187346504
         H 9.781832478313335 15.696640245346051 16.24679952577182
         H 1.3647109560601005 9.554724321413651 9.004565040987885
         H 15.469532088446368 9.554724321413651 7.829678003518584
         H 9.554724321413651 9.004565040987885 1.3647109560601005
         H 9.554724321413651 7.829678003518584 15.469532088446368
         H 15.696640245346051 0.5874435187346504 7.052410566193136
         H 15.696640245346051 16.24679952577182 9.781832478313335
         H 16.24679952577182 9.781832478313335 15.696640245346051
         H 0.5874435187346504 7.052410566193136 15.696640245346051
         H 7.829678003518584 15.469532088446368 9.554724321413651
         H 9.004565040987885 1.3647109560601005 9.554724321413651
         Zn 0.0 4.049642826289558 8.417121522253234
         Zn 8.417121522253234 4.367478695963677 0.0
         Zn 4.367478695963677 0.0 8.417121522253234
         Zn 4.049642826289558 8.417121522253234 0.0
         Zn 8.417121522253234 0.0 4.049642826289558
         Zn 0.0 8.417121522253234 4.367478695963677
         C 16.72890489244698 6.262492580306703 10.402768581248601
         C 0.10533815205948992 6.262492580306703 6.431474463257868
         C 8.522459674312724 2.154628941946531 1.9856470589953663
         C 8.311783370193744 2.154628941946531 14.848595985511102
         C 2.154628941946531 1.9856470589953663 8.522459674312724
         C 2.154628941946531 14.848595985511102 8.311783370193744
         C 6.262492580306703 10.402768581248601 16.72890489244698
         C 6.262492580306703 6.431474463257868 0.10533815205948992
         C 6.431474463257868 0.10533815205948992 6.262492580306703
         C 10.402768581248601 16.72890489244698 6.262492580306703
         C 14.848595985511102 8.311783370193744 2.154628941946531
         C 1.9856470589953663 8.522459674312724 2.154628941946531
         N 0.5844712557697914 5.222329464570552 9.892809176439698
         N 16.249771788736677 5.222329464570552 6.94143386806677
         N 7.8326502664834425 3.194792057682682 1.4756876541864636
         N 9.001592778023026 3.194792057682682 15.358555390320005
         N 3.194792057682682 1.4756876541864636 7.8326502664834425
         N 3.194792057682682 15.358555390320005 9.001592778023026
         N 5.222329464570552 9.892809176439698 0.5844712557697914
         N 5.222329464570552 6.94143386806677 16.249771788736677
         N 6.94143386806677 16.249771788736677 5.222329464570552
         N 9.892809176439698 0.5844712557697914 5.222329464570552
         N 15.358555390320005 9.001592778023026 3.194792057682682
         N 1.4756876541864636 7.8326502664834425 3.194792057682682
         N 6.911275447508023 5.4861729922104026 16.231232965937874
         N 9.922967596998447 5.4861729922104026 0.6030100785685937
         N 15.328396969761258 2.9309485300428313 9.02013160082183
         N 1.5058460747452105 2.9309485300428313 7.814111443684641
         N 0.6030100785685937 9.922967596998447 5.4861729922104026
         N 16.231232965937874 6.911275447508023 5.4861729922104026
         N 7.814111443684641 1.5058460747452105 2.9309485300428313
         N 9.02013160082183 15.328396969761258 2.9309485300428313
         N 2.9309485300428313 7.814111443684641 1.5058460747452105
         N 2.9309485300428313 9.02013160082183 15.328396969761258
         N 5.4861729922104026 0.6030100785685937 9.922967596998447
         N 5.4861729922104026 16.231232965937874 6.911275447508023
         C 1.8043611544607572 5.21997269980804 10.538913850884219
         C 15.029881890045713 5.21997269980804 6.2953291936222495
         C 6.612760367792477 3.1971488224451945 2.1217923286309848
         C 10.221482676713991 3.1971488224451945 14.712450715875484
         C 3.1971488224451945 2.1217923286309848 6.612760367792477
         C 3.1971488224451945 14.712450715875484 10.221482676713991
         C 5.21997269980804 10.538913850884219 1.8043611544607572
         C 5.21997269980804 6.2953291936222495 15.029881890045713
         C 6.2953291936222495 15.029881890045713 5.21997269980804
         C 10.538913850884219 1.8043611544607572 5.21997269980804
         C 14.712450715875484 10.221482676713991 3.1971488224451945
         C 2.1217923286309848 6.612760367792477 3.1971488224451945
         C 6.255711841111137 5.402306651480116 15.018050261948723
         C 10.57853120339533 5.402306651480116 1.8161927825577453
         C 14.672833363364372 3.0148148707731175 10.23331430481098
         C 2.161409681142097 3.0148148707731175 6.6009287396954885
         C 1.8161927825577453 10.57853120339533 5.402306651480116
         C 15.018050261948723 6.255711841111137 5.402306651480116
         C 6.6009287396954885 2.161409681142097 3.0148148707731175
         C 10.23331430481098 14.672833363364372 3.0148148707731175
         C 3.0148148707731175 6.6009287396954885 2.161409681142097
         C 3.0148148707731175 10.23331430481098 14.672833363364372
         C 5.402306651480116 1.8161927825577453 10.57853120339533
         C 5.402306651480116 15.018050261948723 6.255711841111137
         H 2.5602264838423476 4.487063145495171 10.3079186661488
         H 14.274016560664121 4.487063145495171 6.526324378357671
         H 5.8568950384108875 3.930058376758064 1.890797143895563
         H 10.977348006095582 3.930058376758064 14.943445900610902
         H 3.930058376758064 1.890797143895563 5.8568950384108875
         H 3.930058376758064 14.943445900610902 10.977348006095582
         H 4.487063145495171 10.3079186661488 2.5602264838423476
         H 4.487063145495171 6.526324378357671 14.274016560664121
         H 6.526324378357671 14.274016560664121 4.487063145495171
         H 10.3079186661488 2.5602264838423476 4.487063145495171
         H 14.943445900610902 10.977348006095582 3.930058376758064
         H 1.890797143895563 5.8568950384108875 3.930058376758064
         H 6.584806738865545 4.720959529787476 14.250585047241598
         H 10.249436305640923 4.720959529787476 2.5836579972648748
         H 15.00192826111878 3.696161992465759 11.000779519518108
         H 1.8323147833876894 3.696161992465759 5.8334635249883595
         H 2.5836579972648748 10.249436305640923 4.720959529787476
         H 14.250585047241598 6.584806738865545 4.720959529787476
         H 5.8334635249883595 1.8323147833876894 3.696161992465759
         H 11.000779519518108 15.00192826111878 3.696161992465759
         H 3.696161992465759 5.8334635249883595 1.8323147833876894
         H 3.696161992465759 11.000779519518108 15.00192826111878
         H 4.720959529787476 2.5836579972648748 10.249436305640923
         H 4.720959529787476 14.250585047241598 6.584806738865545
         C 15.385888751096301 6.688994802891636 9.922453451235581
         C 1.448354293410167 6.688994802891636 6.911789593270885
         C 9.865475815663402 1.728126719361598 1.5053319289823492
         C 6.968767228843068 1.728126719361598 15.328911115524122
         C 1.728126719361598 1.5053319289823492 9.865475815663402
         C 1.728126719361598 15.328911115524122 6.968767228843068
         C 6.688994802891636 9.922453451235581 15.385888751096301
         C 6.688994802891636 6.911789593270885 1.448354293410167
         C 6.911789593270885 1.448354293410167 6.688994802891636
         C 9.922453451235581 15.385888751096301 6.688994802891636
         C 15.328911115524122 6.968767228843068 1.728126719361598
         C 1.5053319289823492 9.865475815663402 1.728126719361598
         H 6.466980394681942 15.720077766886059 2.2533936446858966
         H 1.950141127571292 7.302956244632823 6.163727877567338
         H 10.367262649824527 1.1141652776204107 2.2533936446858966
         H 14.884101916935176 9.531286799873644 6.163727877567338
         H 1.1141652776204107 2.2533936446858966 10.367262649824527
         H 9.531286799873644 6.163727877567338 14.884101916935176
         H 15.720077766886059 2.2533936446858966 6.466980394681942
         H 7.302956244632823 6.163727877567338 1.950141127571292
         H 6.163727877567338 1.950141127571292 7.302956244632823
         H 2.2533936446858966 6.466980394681942 15.720077766886059
         H 6.163727877567338 14.884101916935176 9.531286799873644
         H 2.2533936446858966 10.367262649824527 1.1141652776204107
         H 14.758606939724226 5.826496238101222 9.692316802730424
         H 2.0756361047822427 5.826496238101222 7.141926241776044
         H 10.492757627035477 2.590625284152012 1.2751952804771902
         H 6.341485417470992 2.590625284152012 15.559047764029279
         H 2.590625284152012 1.2751952804771902 10.492757627035477
         H 2.590625284152012 15.559047764029279 6.341485417470992
         H 5.826496238101222 9.692316802730424 14.758606939724226
         H 5.826496238101222 7.141926241776044 2.0756361047822427
         H 7.141926241776044 2.0756361047822427 5.826496238101222
         H 9.692316802730424 14.758606939724226 5.826496238101222
         H 15.559047764029279 6.341485417470992 2.590625284152012
         H 1.2751952804771902 10.492757627035477 2.590625284152012
         H 15.469532088446368 7.279518723092816 9.004565040987885
         H 1.3647109560601005 7.279518723092816 7.829678003518585
         H 9.781832478313335 1.1376027991604178 0.5874435187346495
         H 7.052410566193136 1.1376027991604178 16.24679952577182
         H 1.1376027991604178 0.5874435187346495 9.781832478313335
         H 1.1376027991604178 16.24679952577182 7.052410566193136
         H 7.279518723092816 9.004565040987885 15.469532088446368
         H 7.279518723092816 7.829678003518585 1.3647109560601005
         H 7.829678003518585 1.3647109560601005 7.279518723092816
         H 9.004565040987885 15.469532088446368 7.279518723092816
         H 16.24679952577182 7.052410566193136 1.1376027991604178
         H 0.5874435187346495 9.781832478313335 1.1376027991604178
      &END COORD
      &KIND H
         BASIS_SET TZV2P-MOLOPT-GTH-q1
         POTENTIAL GTH-PBE-q1
         &POTENTIAL
            1
            2.0000000000000001E-001 2 -4.1789004399999996E+000  7.2446330999999997E-001
            0
         &END POTENTIAL
      &END KIND
      &KIND C
         BASIS_SET TZV2P-MOLOPT-GTH-q4
         POTENTIAL GTH-PBE-q4
         &POTENTIAL
            2 2
            3.3847124000000001E-001 2 -8.8036739799999992E+000  1.3392108500000000E+000
            2
            3.0257574999999998E-001 1  9.6224866500000008E+000
            2.9150693999999999E-001 0
         &END POTENTIAL
      &END KIND
      &KIND N
         BASIS_SET TZV2P-MOLOPT-GTH-q5
         POTENTIAL GTH-PBE-q5
         &POTENTIAL
            2 3
            2.8379051000000000E-001 2 -1.2415225590000000E+001  1.8680959200000000E+000
            2
            2.5540499999999999E-001 1  1.3630262569999999E+001
            2.4549452999999999E-001 0
         &END POTENTIAL
      &END KIND
      &KIND Zn
         BASIS_SET TZV2P-MOLOPT-SR-GTH-q12
         POTENTIAL GTH-PBE-q12
         &POTENTIAL
            2 0 10
            5.1000000000000001E-001 0
            3
            4.0031644000000000E-001 3  1.1530041330000000E+001 -8.7918981499999997E+000  3.1450864400000000E+000
            1.6465775180000001E+001 -8.1205782699999993E+000
            6.4455091800000002E+000
            5.4318233000000005E-001 2  2.5971951199999999E+000 -5.9426274999999995E-001
            7.0314116999999998E-001
            2.5095885000000001E-001 1 -1.4466957949999999E+001
         &END POTENTIAL
      &END KIND
   &END SUBSYS
   &PRINT
      &FORCES
         FILENAME forces
      &END FORCES
   &END PRINT
&END FORCE_EVAL
